num_offers = 25;
num_halls = 10;
start=[31,42,10,21,66,7,31,20,19,3,58,7,6,7,54,28,6,15,12,62,57,26,30,31,27];
end=[94,76,73,25,73,57,68,60,66,48,80,14,67,92,90,93,63,37,60,76,75,69,48,98,99];
price=[6067,1973,2424,429,371,2793,1902,2601,3849,796,1130,744,1525,7166,3296,1556,593,1322,4242,1086,572,1241,1059,1628,4091];
requirement=[272,581,629,615,521,624,851,843,625,787,402,212,498,276,942,553,206,761,672,848,586,663,986,640,441];
capacity=[911,613,956,526,697,279,778,431,845,646];
